120
1000
200
200
198
198
197
197
197
196
196
196
196
196
196
195
195
195
195
194
194
194
194
194
193
193
193
193
193
193
193
193
192
192
191
191
190
189
189
189
188
188
188
187
187
185
185
184
184
184
184
184
183
183
182
181
181
180
179
179
179
178
178
178
177
176
176
175
175
175
174
174
174
174
173
173
173
171
170
168
168
167
167
166
166
166
166
164
164
164
164
164
163
163
163
162
162
160
159
159
158
158
158
157
157
157
156
155
154
154
154
153
153
152
152
151
151
151
151
150
150
150
